71
73
76
59
53
179
154
84
63
33
64
115
59
38
126
61
67
125
253
37
81
91
58
172
56
107
63
54
0
66
155
250
190
123
52
69
225
74
33
115
47
455
36
143
51
0
88
51
121
144
459
113
34
112
46
89
26
33
0
33
57
25
44
164
258
270
180
194
295
74
225
89
64
69
37
443
51
58
66
170
33
88
0
144
92
115
148
100
102
320
73
54
0
0
204
110
0
102
94
0
